
Z:\home\slack\apuntes\cardinalidades\cod1>ampl CC.run 
=======================================
CPLEX 12.6.3.0: timelimit=1000
timing=2
mipdisplay=3
mipgap=1E-6
integrality=1E-8
feasibility=1E-9
Reduced MIQCP has 402 rows, 1000 columns, and 1600 nonzeros.
Reduced MIQCP has 200 binaries, 0 generals, 0 SOSs, and 0 indicators.
Reduced MIQCP has 200 quadratic constraints.
Probing time = 0.00 sec. (0.08 ticks)
MIP emphasis: balance optimality and feasibility.
MIP search method: dynamic search.
Parallel mode: deterministic, using up to 4 threads.
Root relaxation solution time = 0.00 sec. (0.40 ticks)

        Nodes                                         Cuts/
   Node  Left     Objective  IInf  Best Integer    Best Bound    ItCnt     Gap

      0     0        0.0000     0                      0.0000        0         
      0     0        0.0000     0                     Cone: 1        1         
      0     0        0.0000     0                     Cone: 2        2         
      0     0        0.0000     0                     Cone: 3        3         
      0     0        0.0000     0                     Cone: 4        4         
      0     0        0.0000     0                     Cone: 5        5         
      0     0        0.0000     0                     Cone: 6        6         
*     0     0      integral     0        0.3484        0.3484       37    0.00%
Elapsed time = 0.44 sec. (101.21 ticks, tree = 0.00 MB)
Found incumbent of value 0.348390 after 0.44 sec. (101.21 ticks)

Root node processing (before b&c):
  Real time             =    0.44 sec. (101.23 ticks)
Parallel b&c, 4 threads:
  Real time             =    0.00 sec. (0.00 ticks)
  Sync time (average)   =    0.00 sec.
  Wait time (average)   =    0.00 sec.
                          ------------
Total (root+branch&cut) =    0.44 sec. (101.23 ticks)
CPLEX solution status 6 with fixed integers:
	best solution found, primal infeasible

Times (seconds):
Input =  0
Solve =  0.47
Output = 0.05
CPLEX 12.6.3.0: optimal (non-)integer solution; objective 0.3483900436
37 MIP simplex iterations
0 branch-and-bound nodes
Tried aggregator 2 times
No basis.
200 integer variables rounded (maxerr = 2.90063e-09).
Assigning integrality = 1e-09 might help.
Currently integrality = 1e-08.
=======================================
CPLEX 12.6.3.0: timelimit=1000
timing=2
mipdisplay=3
mipgap=1E-6
integrality=1E-8
feasibility=1E-9

Times (seconds):
Input =  0
Solve =  0.19
Output = 0.03
CPLEX 12.6.3.0: optimal solution; objective 0.2894149286
27 barrier iterations
No basis.
=======================================
Gurobi 6.5.2: timelim=1000
logfreq=5
outlev=1
timing=1
mipgap=1E-6
Optimize a model with 1 rows, 600 columns and 200 nonzeros
Model has 201 quadratic constraints
Coefficient statistics:
  Matrix range    [1e+00, 1e+00]
  Objective range [1e-04, 1e+00]
  Bounds range    [1e+00, 1e+00]
  RHS range       [1e+00, 1e+00]
Presolve time: 0.01s
Presolved: 2 rows, 600 columns, 400 nonzeros
Variable types: 400 continuous, 200 integer (200 binary)

Root relaxation: objective -3.821497e-01, 0 iterations, 0.00 seconds

    Nodes    |    Current Node    |     Objective Bounds      |     Work
 Expl Unexpl |  Obj  Depth IntInf | Incumbent    BestBd   Gap | It/Node Time

     0     0   -0.02114    0    2          -   -0.02114      -     -    0s
H    0     0                       0.0445935   -0.02114   147%     -    0s
     0     0   -0.01411    0    2    0.04459   -0.01411   132%     -    0s
H    0     0                       0.0445931   -0.01411   132%     -    0s
     0     0   -0.01346    0    2    0.04459   -0.01346   130%     -    0s
H    0     2                       0.0258281   -0.01346   152%     -    0s
     0     2   -0.00739    0    2    0.02583   -0.00739   129%     -    0s
H   38     0                       0.0254487    0.00076  97.0%   4.4    0s
H  117     0                       0.0166884    0.00168  89.9%   3.2    0s
H 7262    29                       0.0164679    0.00296  82.0%   3.0    1s
* 8699     0              28       0.0164679    0.01645  0.09%   8.2    2s

Cutting planes:

Explored 8700 nodes (71397 simplex iterations) in 2.55 seconds
Thread count was 4 (of 4 available processors)

Optimal solution found (tolerance 1.00e-06)
Best objective 1.646790782168e-02, best bound 1.646790782168e-02, gap 0.0%

Times (seconds):
Input =  0
Solve =  9.18 (summed over threads)
Output = 0
Elapsed = 2
Gurobi 6.5.2: optimal solution; objective 0.01646790782
71397 simplex iterations
8700 branch-and-cut nodes
No dual variables returned.
=======================================
LOQO 7.03: ignoring integrality of 200 variables
LOQO 7.03: iteration limit (500 iterations, 2288 evaluations)
primal objective 0.3028635445
  dual objective 0.302243492
